;; Original file: phi_16.smt2
(set-logic HORN)
(declare-fun INV1 (Int Int Int Int Int Int Int Int ) Bool)
(declare-fun INV2 (Int Int Int Int Int Int Int Int ) Bool)


(assert (forall ((I Int)
         (E Int)
         (J Int)
         (F Int)
         (A Int)
         (B Int)
         (D Int)
         (C Int)
         (G Int)
         (H Int))
  (=> (and (= (+ I 1) E)
           (= (* 5 J) F)
           (not (>= A B))
           (>= D I)
           (INV1 A B C D I J G H)
           (= G H))
      (INV1 A B C D E F G H))))
(assert (forall ((I Int)
         (B Int)
         (J Int)
         (C Int)
         (K Int)
         (E Int)
         (L Int)
         (F Int)
         (A Int)
         (D Int)
         (G Int)
         (H Int))
  (=> (and (= (+ I 1) B)
           (= (* 5 J) C)
           (= (+ K 1) E)
           (= (* 5 L) F)
           (>= A I)
           (>= D K)
           (INV1 A I J D K L G H)
           (= G H))
      (INV1 A B C D E F G H))))
(assert (forall ((I Int)
         (B Int)
         (J Int)
         (C Int)
         (A Int)
         (D Int)
         (E Int)
         (F Int)
         (G Int)
         (H Int))
  (=> (and (= (+ I 1) B)
           (= (* 5 J) C)
           (>= A I)
           (not (>= D E))
           (INV1 A I J D E F G H)
           (= G H))
      (INV1 A B C D E F G H))))
(assert (forall ((I Int)
         (B Int)
         (J Int)
         (C Int)
         (D Int)
         (E Int)
         (A Int)
         (F Int)
         (G Int)
         (H Int)
         (K Int)
         (L Int)
         (M Int)
         (N Int)
         (O Int)
         (P Int))
  (=> (and (= (+ I 1) B)
           (= (+ J I) C)
           (not (>= D E))
           (>= A I)
           (INV2 A I J D E F G H)
           (not (>= K L))
           (not (>= M N))
           (INV1 K L O M N P G H)
           (= G H))
      (INV2 A B C D E F G H))))
(assert (forall ((I Int)
         (B Int)
         (J Int)
         (C Int)
         (K Int)
         (E Int)
         (L Int)
         (F Int)
         (D Int)
         (A Int)
         (G Int)
         (H Int)
         (M Int)
         (N Int)
         (O Int)
         (P Int)
         (Q Int)
         (R Int))
  (=> (and (= (+ I 1) B)
           (= (+ J I) C)
           (= (+ K 1) E)
           (= (+ L K) F)
           (>= D K)
           (>= A I)
           (INV2 A I J D K L G H)
           (not (>= M N))
           (not (>= O P))
           (INV1 M N Q O P R G H)
           (= G H))
      (INV2 A B C D E F G H))))
(assert (forall ((I Int)
         (E Int)
         (J Int)
         (F Int)
         (D Int)
         (A Int)
         (B Int)
         (C Int)
         (G Int)
         (H Int)
         (K Int)
         (L Int)
         (M Int)
         (N Int)
         (O Int)
         (P Int))
  (=> (and (= (+ I 1) E)
           (= (+ J I) F)
           (>= D I)
           (not (>= A B))
           (INV2 A B C D I J G H)
           (not (>= K L))
           (not (>= M N))
           (INV1 K L O M N P G H)
           (= G H))
      (INV2 A B C D E F G H))))
(assert (forall ((A Int)
         (B Int)
         (C Int)
         (D Int)
         (E Int)
         (F Int)
         (G Int)
         (H Int)
         (I Int)
         (J Int)
         (K Int)
         (L Int)
         (M Int)
         (N Int))
  (=> (and (not (= A B))
           (not (>= C D))
           (not (>= E F))
           (INV2 E F A C D B G H)
           (not (>= I J))
           (not (>= K L))
           (INV1 I J M K L N G H)
           (= G H))
      false)))
(assert (forall ((B Int)
         (E Int)
         (A Int)
         (I Int)
         (D Int)
         (J Int)
         (C Int)
         (F Int)
         (G Int)
         (H Int))
  (let ((a!1 (and (= (* (- 1) B) 0)
                  (= (* (- 1) E) (- 1))
                  (not (>= A I))
                  (not (>= D J))
                  (INV1 A I C D J F G H)
                  (= G H))))
    (=> a!1 (INV2 A B C D E F G H)))))
(assert (forall ((B Int) (C Int) (E Int) (F Int) (A Int) (D Int))
  (let ((a!1 (and (= (* (- 1) B) (- 1))
                  (= (* (- 1) C) (- 1))
                  (= (* (- 1) E) (- 1))
                  (= (* (- 1) F) (- 1))
                  (= A D))))
    (=> a!1 (INV1 A B C D E F A D)))))
(check-sat)
